p edge 150 3353
e 1 5
e 1 6
e 1 19
e 1 20
e 1 23
e 1 25
e 1 27
e 1 31
e 1 33
e 1 35
e 1 37
e 1 40
e 1 41
e 1 43
e 1 45
e 1 51
e 1 52
e 1 53
e 1 54
e 1 55
e 1 57
e 1 60
e 1 67
e 1 71
e 1 73
e 1 77
e 1 85
e 1 88
e 1 90
e 1 96
e 1 98
e 1 99
e 1 102
e 1 103
e 1 104
e 1 114
e 1 116
e 1 125
e 1 127
e 1 131
e 1 139
e 2 4
e 2 5
e 2 8
e 2 11
e 2 12
e 2 13
e 2 16
e 2 17
e 2 18
e 2 23
e 2 25
e 2 26
e 2 28
e 2 37
e 2 38
e 2 40
e 2 43
e 2 45
e 2 50
e 2 51
e 2 63
e 2 67
e 2 68
e 2 71
e 2 80
e 2 87
e 2 88
e 2 90
e 2 91
e 2 92
e 2 94
e 2 103
e 2 110
e 2 112
e 2 120
e 2 127
e 2 129
e 2 131
e 2 132
e 2 138
e 2 139
e 3 4
e 3 6
e 3 11
e 3 15
e 3 16
e 3 17
e 3 21
e 3 24
e 3 25
e 3 27
e 3 31
e 3 32
e 3 33
e 3 35
e 3 39
e 3 40
e 3 44
e 3 45
e 3 50
e 3 51
e 3 56
e 3 57
e 3 61
e 3 63
e 3 64
e 3 65
e 3 67
e 3 70
e 3 71
e 3 75
e 3 76
e 3 81
e 3 83
e 3 91
e 3 92
e 3 94
e 3 96
e 3 98
e 3 104
e 3 106
e 3 108
e 3 112
e 3 114
e 3 115
e 3 119
e 3 128
e 3 133
e 3 141
e 3 142
e 3 150
e 4 7
e 4 10
e 4 11
e 4 15
e 4 17
e 4 18
e 4 23
e 4 25
e 4 26
e 4 27
e 4 28
e 4 29
e 4 33
e 4 34
e 4 36
e 4 41
e 4 44
e 4 51
e 4 53
e 4 55
e 4 59
e 4 67
e 4 69
e 4 71
e 4 72
e 4 73
e 4 75
e 4 77
e 4 78
e 4 84
e 4 85
e 4 91
e 4 101
e 4 102
e 4 106
e 4 108
e 4 110
e 4 116
e 4 117
e 4 118
e 4 119
e 4 122
e 4 123
e 4 125
e 4 128
e 4 132
e 4 134
e 4 135
e 4 138
e 4 145
e 5 8
e 5 11
e 5 13
e 5 21
e 5 22
e 5 29
e 5 34
e 5 35
e 5 46
e 5 47
e 5 52
e 5 60
e 5 62
e 5 69
e 5 70
e 5 73
e 5 75
e 5 77
e 5 80
e 5 83
e 5 84
e 5 86
e 5 89
e 5 94
e 5 97
e 5 99
e 5 107
e 5 110
e 5 113
e 5 119
e 5 123
e 5 127
e 5 129
e 5 131
e 5 132
e 5 134
e 5 136
e 5 138
e 5 142
e 5 149
e 6 12
e 6 13
e 6 17
e 6 19
e 6 20
e 6 24
e 6 38
e 6 40
e 6 44
e 6 46
e 6 52
e 6 53
e 6 54
e 6 60
e 6 63
e 6 66
e 6 71
e 6 72
e 6 74
e 6 75
e 6 76
e 6 78
e 6 79
e 6 80
e 6 81
e 6 85
e 6 87
e 6 90
e 6 96
e 6 97
e 6 100
e 6 112
e 6 113
e 6 118
e 6 120
e 6 121
e 6 122
e 6 132
e 6 134
e 6 136
e 6 137
e 6 141
e 6 142
e 6 145
e 6 146
e 6 147
e 7 12
e 7 19
e 7 23
e 7 30
e 7 31
e 7 37
e 7 41
e 7 42
e 7 47
e 7 55
e 7 58
e 7 59
e 7 60
e 7 65
e 7 67
e 7 69
e 7 70
e 7 73
e 7 74
e 7 75
e 7 76
e 7 86
e 7 89
e 7 91
e 7 96
e 7 98
e 7 99
e 7 103
e 7 104
e 7 106
e 7 108
e 7 110
e 7 112
e 7 116
e 7 118
e 7 120
e 7 121
e 7 126
e 7 128
e 7 130
e 7 132
e 7 141
e 7 144
e 7 145
e 7 150
e 8 11
e 8 13
e 8 17
e 8 19
e 8 21
e 8 25
e 8 27
e 8 28
e 8 32
e 8 33
e 8 38
e 8 39
e 8 43
e 8 51
e 8 52
e 8 56
e 8 57
e 8 60
e 8 67
e 8 70
e 8 73
e 8 76
e 8 82
e 8 86
e 8 88
e 8 90
e 8 95
e 8 98
e 8 100
e 8 104
e 8 109
e 8 122
e 8 124
e 8 125
e 8 126
e 8 131
e 8 138
e 8 139
e 8 144
e 8 149
e 8 150
e 9 14
e 9 18
e 9 22
e 9 24
e 9 26
e 9 28
e 9 29
e 9 30
e 9 32
e 9 33
e 9 35
e 9 36
e 9 39
e 9 45
e 9 46
e 9 57
e 9 59
e 9 61
e 9 62
e 9 73
e 9 76
e 9 79
e 9 80
e 9 85
e 9 86
e 9 87
e 9 93
e 9 94
e 9 96
e 9 98
e 9 99
e 9 107
e 9 110
e 9 112
e 9 114
e 9 115
e 9 116
e 9 117
e 9 118
e 9 126
e 9 136
e 9 137
e 9 140
e 9 145
e 9 148
e 10 12
e 10 14
e 10 41
e 10 45
e 10 46
e 10 47
e 10 55
e 10 62
e 10 67
e 10 69
e 10 71
e 10 72
e 10 73
e 10 75
e 10 76
e 10 77
e 10 78
e 10 79
e 10 80
e 10 81
e 10 83
e 10 88
e 10 91
e 10 98
e 10 104
e 10 109
e 10 110
e 10 111
e 10 112
e 10 119
e 10 122
e 10 125
e 10 129
e 10 133
e 10 136
e 10 138
e 10 142
e 10 143
e 10 145
e 10 147
e 10 148
e 11 13
e 11 14
e 11 19
e 11 22
e 11 28
e 11 30
e 11 34
e 11 35
e 11 37
e 11 38
e 11 41
e 11 42
e 11 44
e 11 45
e 11 47
e 11 54
e 11 57
e 11 58
e 11 59
e 11 61
e 11 62
e 11 64
e 11 65
e 11 70
e 11 76
e 11 81
e 11 84
e 11 87
e 11 92
e 11 98
e 11 102
e 11 103
e 11 104
e 11 109
e 11 111
e 11 116
e 11 127
e 11 129
e 11 132
e 11 133
e 11 138
e 11 143
e 11 144
e 11 145
e 11 149
e 12 13
e 12 14
e 12 16
e 12 17
e 12 18
e 12 20
e 12 24
e 12 26
e 12 30
e 12 31
e 12 36
e 12 45
e 12 46
e 12 50
e 12 51
e 12 52
e 12 56
e 12 59
e 12 60
e 12 62
e 12 63
e 12 70
e 12 74
e 12 76
e 12 87
e 12 94
e 12 95
e 12 101
e 12 102
e 12 107
e 12 110
e 12 111
e 12 113
e 12 119
e 12 124
e 12 133
e 12 136
e 12 138
e 12 140
e 12 141
e 12 142
e 12 145
e 12 146
e 12 150
e 13 14
e 13 21
e 13 25
e 13 27
e 13 30
e 13 34
e 13 35
e 13 37
e 13 43
e 13 48
e 13 49
e 13 51
e 13 53
e 13 56
e 13 58
e 13 62
e 13 69
e 13 71
e 13 75
e 13 77
e 13 78
e 13 80
e 13 85
e 13 86
e 13 87
e 13 92
e 13 96
e 13 99
e 13 104
e 13 106
e 13 107
e 13 109
e 13 114
e 13 122
e 13 124
e 13 127
e 13 131
e 13 136
e 13 137
e 13 140
e 13 143
e 13 148
e 13 149
e 14 15
e 14 18
e 14 22
e 14 23
e 14 29
e 14 38
e 14 39
e 14 43
e 14 47
e 14 48
e 14 51
e 14 56
e 14 57
e 14 60
e 14 61
e 14 62
e 14 64
e 14 70
e 14 73
e 14 76
e 14 89
e 14 111
e 14 115
e 14 116
e 14 135
e 14 136
e 14 137
e 14 140
e 14 141
e 14 147
e 15 19
e 15 21
e 15 23
e 15 29
e 15 33
e 15 37
e 15 39
e 15 40
e 15 44
e 15 45
e 15 46
e 15 50
e 15 51
e 15 62
e 15 64
e 15 65
e 15 66
e 15 68
e 15 70
e 15 73
e 15 82
e 15 88
e 15 89
e 15 90
e 15 95
e 15 97
e 15 99
e 15 100
e 15 111
e 15 115
e 15 117
e 15 119
e 15 121
e 15 128
e 15 129
e 15 131
e 15 134
e 15 136
e 15 139
e 15 142
e 15 147
e 15 148
e 16 18
e 16 21
e 16 30
e 16 36
e 16 37
e 16 38
e 16 39
e 16 41
e 16 42
e 16 43
e 16 45
e 16 48
e 16 50
e 16 51
e 16 55
e 16 57
e 16 58
e 16 62
e 16 63
e 16 67
e 16 69
e 16 70
e 16 74
e 16 75
e 16 76
e 16 80
e 16 85
e 16 86
e 16 92
e 16 97
e 16 98
e 16 99
e 16 102
e 16 104
e 16 108
e 16 109
e 16 113
e 16 114
e 16 119
e 16 122
e 16 125
e 16 130
e 16 131
e 16 135
e 16 138
e 16 144
e 16 148
e 16 150
e 17 19
e 17 21
e 17 23
e 17 28
e 17 31
e 17 32
e 17 34
e 17 35
e 17 38
e 17 42
e 17 43
e 17 44
e 17 46
e 17 48
e 17 51
e 17 54
e 17 55
e 17 60
e 17 63
e 17 66
e 17 67
e 17 68
e 17 69
e 17 79
e 17 80
e 17 83
e 17 86
e 17 90
e 17 92
e 17 93
e 17 100
e 17 102
e 17 103
e 17 108
e 17 110
e 17 115
e 17 123
e 17 128
e 17 129
e 17 135
e 17 140
e 17 142
e 17 143
e 17 144
e 17 145
e 17 150
e 18 19
e 18 32
e 18 35
e 18 36
e 18 37
e 18 38
e 18 44
e 18 45
e 18 53
e 18 54
e 18 55
e 18 56
e 18 59
e 18 60
e 18 63
e 18 64
e 18 66
e 18 68
e 18 69
e 18 70
e 18 73
e 18 77
e 18 80
e 18 86
e 18 88
e 18 95
e 18 96
e 18 100
e 18 101
e 18 103
e 18 104
e 18 105
e 18 113
e 18 115
e 18 116
e 18 117
e 18 119
e 18 121
e 18 123
e 18 131
e 18 135
e 18 136
e 18 140
e 18 141
e 18 143
e 18 144
e 18 148
e 18 150
e 19 23
e 19 26
e 19 35
e 19 38
e 19 39
e 19 45
e 19 46
e 19 52
e 19 54
e 19 57
e 19 68
e 19 73
e 19 85
e 19 86
e 19 89
e 19 95
e 19 102
e 19 109
e 19 113
e 19 120
e 19 121
e 19 125
e 19 137
e 19 138
e 19 147
e 19 148
e 19 149
e 19 150
e 20 22
e 20 25
e 20 29
e 20 30
e 20 31
e 20 37
e 20 38
e 20 45
e 20 51
e 20 56
e 20 67
e 20 68
e 20 69
e 20 73
e 20 75
e 20 78
e 20 84
e 20 85
e 20 87
e 20 90
e 20 91
e 20 92
e 20 94
e 20 95
e 20 100
e 20 107
e 20 114
e 20 116
e 20 118
e 20 123
e 20 124
e 20 125
e 20 130
e 20 131
e 20 135
e 20 136
e 20 140
e 20 142
e 20 144
e 21 25
e 21 27
e 21 29
e 21 31
e 21 32
e 21 33
e 21 37
e 21 38
e 21 42
e 21 47
e 21 53
e 21 56
e 21 57
e 21 63
e 21 64
e 21 65
e 21 78
e 21 87
e 21 88
e 21 95
e 21 98
e 21 101
e 21 111
e 21 112
e 21 115
e 21 116
e 21 117
e 21 119
e 21 124
e 21 131
e 21 134
e 21 137
e 21 138
e 21 140
e 21 143
e 21 150
e 22 23
e 22 25
e 22 33
e 22 39
e 22 42
e 22 47
e 22 54
e 22 56
e 22 57
e 22 64
e 22 65
e 22 66
e 22 67
e 22 68
e 22 69
e 22 70
e 22 71
e 22 72
e 22 73
e 22 77
e 22 78
e 22 79
e 22 82
e 22 84
e 22 86
e 22 93
e 22 94
e 22 101
e 22 105
e 22 110
e 22 112
e 22 128
e 22 130
e 22 132
e 22 139
e 22 143
e 22 149
e 23 26
e 23 32
e 23 33
e 23 41
e 23 44
e 23 45
e 23 46
e 23 47
e 23 48
e 23 52
e 23 54
e 23 55
e 23 60
e 23 64
e 23 65
e 23 68
e 23 73
e 23 76
e 23 77
e 23 80
e 23 83
e 23 86
e 23 97
e 23 99
e 23 104
e 23 105
e 23 106
e 23 107
e 23 108
e 23 109
e 23 112
e 23 119
e 23 124
e 23 126
e 23 130
e 23 131
e 23 140
e 23 143
e 23 145
e 24 33
e 24 39
e 24 46
e 24 47
e 24 50
e 24 51
e 24 53
e 24 55
e 24 66
e 24 69
e 24 70
e 24 71
e 24 72
e 24 74
e 24 78
e 24 81
e 24 82
e 24 85
e 24 86
e 24 89
e 24 91
e 24 94
e 24 101
e 24 103
e 24 105
e 24 108
e 24 109
e 24 112
e 24 113
e 24 118
e 24 127
e 24 132
e 24 135
e 24 138
e 24 142
e 24 144
e 24 148
e 24 150
e 25 27
e 25 29
e 25 34
e 25 36
e 25 38
e 25 39
e 25 45
e 25 49
e 25 54
e 25 56
e 25 58
e 25 59
e 25 61
e 25 64
e 25 65
e 25 71
e 25 72
e 25 77
e 25 79
e 25 82
e 25 83
e 25 87
e 25 88
e 25 89
e 25 98
e 25 100
e 25 101
e 25 102
e 25 104
e 25 105
e 25 107
e 25 111
e 25 112
e 25 123
e 25 125
e 25 126
e 25 133
e 25 135
e 25 144
e 25 146
e 25 148
e 25 150
e 26 33
e 26 36
e 26 38
e 26 39
e 26 40
e 26 42
e 26 43
e 26 53
e 26 54
e 26 63
e 26 67
e 26 72
e 26 73
e 26 74
e 26 84
e 26 85
e 26 91
e 26 93
e 26 95
e 26 96
e 26 97
e 26 99
e 26 101
e 26 102
e 26 105
e 26 108
e 26 109
e 26 111
e 26 112
e 26 121
e 26 126
e 26 140
e 26 141
e 26 144
e 26 147
e 27 30
e 27 35
e 27 41
e 27 42
e 27 48
e 27 50
e 27 56
e 27 57
e 27 58
e 27 62
e 27 67
e 27 73
e 27 75
e 27 76
e 27 79
e 27 81
e 27 86
e 27 93
e 27 94
e 27 95
e 27 97
e 27 98
e 27 101
e 27 103
e 27 106
e 27 109
e 27 111
e 27 113
e 27 129
e 27 131
e 27 134
e 27 141
e 27 143
e 27 144
e 27 145
e 27 147
e 28 29
e 28 30
e 28 31
e 28 37
e 28 38
e 28 42
e 28 43
e 28 47
e 28 52
e 28 53
e 28 54
e 28 58
e 28 75
e 28 77
e 28 80
e 28 81
e 28 83
e 28 84
e 28 88
e 28 90
e 28 97
e 28 102
e 28 103
e 28 108
e 28 109
e 28 112
e 28 115
e 28 120
e 28 122
e 28 124
e 28 126
e 28 128
e 28 132
e 28 138
e 28 149
e 29 34
e 29 38
e 29 39
e 29 41
e 29 42
e 29 43
e 29 48
e 29 49
e 29 51
e 29 53
e 29 58
e 29 61
e 29 69
e 29 80
e 29 83
e 29 88
e 29 90
e 29 93
e 29 94
e 29 95
e 29 96
e 29 97
e 29 100
e 29 101
e 29 105
e 29 109
e 29 117
e 29 118
e 29 119
e 29 122
e 29 123
e 29 128
e 29 131
e 29 132
e 29 136
e 29 138
e 29 146
e 30 32
e 30 33
e 30 39
e 30 41
e 30 42
e 30 44
e 30 47
e 30 48
e 30 50
e 30 51
e 30 52
e 30 57
e 30 60
e 30 65
e 30 68
e 30 82
e 30 86
e 30 92
e 30 95
e 30 102
e 30 111
e 30 114
e 30 116
e 30 119
e 30 121
e 30 135
e 30 140
e 30 141
e 30 147
e 30 150
e 31 34
e 31 46
e 31 51
e 31 54
e 31 55
e 31 70
e 31 71
e 31 72
e 31 86
e 31 90
e 31 96
e 31 97
e 31 98
e 31 101
e 31 102
e 31 106
e 31 107
e 31 113
e 31 115
e 31 116
e 31 127
e 31 128
e 31 131
e 31 133
e 31 134
e 31 136
e 31 138
e 31 147
e 31 148
e 31 150
e 32 36
e 32 38
e 32 39
e 32 41
e 32 45
e 32 46
e 32 47
e 32 50
e 32 52
e 32 55
e 32 58
e 32 61
e 32 62
e 32 64
e 32 66
e 32 69
e 32 71
e 32 72
e 32 73
e 32 75
e 32 78
e 32 85
e 32 88
e 32 89
e 32 90
e 32 94
e 32 95
e 32 97
e 32 100
e 32 106
e 32 107
e 32 113
e 32 115
e 32 116
e 32 118
e 32 120
e 32 121
e 32 123
e 32 124
e 32 134
e 32 138
e 32 140
e 32 143
e 32 144
e 32 146
e 32 148
e 32 149
e 33 34
e 33 36
e 33 38
e 33 41
e 33 49
e 33 50
e 33 54
e 33 59
e 33 60
e 33 64
e 33 67
e 33 73
e 33 81
e 33 89
e 33 92
e 33 96
e 33 97
e 33 98
e 33 107
e 33 111
e 33 113
e 33 117
e 33 124
e 33 128
e 33 129
e 33 130
e 33 132
e 33 133
e 33 134
e 33 139
e 33 145
e 33 147
e 33 149
e 34 35
e 34 37
e 34 39
e 34 40
e 34 50
e 34 58
e 34 60
e 34 63
e 34 71
e 34 74
e 34 78
e 34 81
e 34 83
e 34 84
e 34 86
e 34 88
e 34 89
e 34 98
e 34 102
e 34 103
e 34 106
e 34 109
e 34 110
e 34 113
e 34 114
e 34 118
e 34 127
e 34 130
e 34 140
e 34 147
e 35 38
e 35 49
e 35 51
e 35 57
e 35 58
e 35 64
e 35 67
e 35 68
e 35 69
e 35 76
e 35 77
e 35 82
e 35 83
e 35 88
e 35 92
e 35 93
e 35 104
e 35 105
e 35 106
e 35 115
e 35 116
e 35 119
e 35 122
e 35 123
e 35 127
e 35 129
e 35 133
e 35 134
e 35 138
e 36 40
e 36 41
e 36 45
e 36 46
e 36 48
e 36 50
e 36 55
e 36 60
e 36 65
e 36 66
e 36 69
e 36 70
e 36 72
e 36 74
e 36 76
e 36 77
e 36 84
e 36 88
e 36 90
e 36 91
e 36 106
e 36 108
e 36 110
e 36 111
e 36 112
e 36 114
e 36 115
e 36 117
e 36 119
e 36 120
e 36 121
e 36 126
e 36 136
e 36 137
e 36 139
e 36 141
e 36 147
e 37 38
e 37 47
e 37 48
e 37 51
e 37 54
e 37 56
e 37 58
e 37 60
e 37 61
e 37 67
e 37 71
e 37 75
e 37 80
e 37 84
e 37 91
e 37 97
e 37 100
e 37 102
e 37 109
e 37 112
e 37 113
e 37 115
e 37 116
e 37 120
e 37 121
e 37 123
e 37 127
e 37 128
e 37 138
e 37 149
e 37 150
e 38 44
e 38 45
e 38 46
e 38 49
e 38 51
e 38 53
e 38 54
e 38 56
e 38 57
e 38 60
e 38 62
e 38 74
e 38 75
e 38 76
e 38 78
e 38 80
e 38 82
e 38 84
e 38 86
e 38 87
e 38 91
e 38 93
e 38 97
e 38 99
e 38 100
e 38 102
e 38 107
e 38 112
e 38 118
e 38 121
e 38 122
e 38 126
e 38 128
e 38 131
e 38 135
e 38 137
e 38 138
e 38 139
e 38 141
e 38 143
e 38 148
e 39 40
e 39 44
e 39 57
e 39 62
e 39 66
e 39 67
e 39 74
e 39 77
e 39 86
e 39 89
e 39 94
e 39 97
e 39 98
e 39 103
e 39 104
e 39 111
e 39 112
e 39 117
e 39 119
e 39 123
e 39 126
e 39 130
e 39 137
e 39 142
e 39 144
e 39 145
e 39 150
e 40 41
e 40 44
e 40 50
e 40 51
e 40 52
e 40 61
e 40 63
e 40 66
e 40 68
e 40 71
e 40 72
e 40 74
e 40 76
e 40 77
e 40 79
e 40 82
e 40 85
e 40 91
e 40 93
e 40 95
e 40 100
e 40 101
e 40 103
e 40 104
e 40 108
e 40 110
e 40 114
e 40 124
e 40 126
e 40 132
e 40 134
e 40 137
e 40 138
e 40 149
e 41 44
e 41 45
e 41 48
e 41 50
e 41 58
e 41 65
e 41 74
e 41 79
e 41 80
e 41 86
e 41 89
e 41 91
e 41 98
e 41 99
e 41 100
e 41 101
e 41 103
e 41 111
e 41 114
e 41 116
e 41 119
e 41 121
e 41 128
e 41 129
e 41 130
e 41 132
e 41 134
e 41 140
e 41 141
e 41 146
e 41 149
e 41 150
e 42 43
e 42 48
e 42 52
e 42 63
e 42 64
e 42 68
e 42 69
e 42 72
e 42 73
e 42 80
e 42 86
e 42 88
e 42 89
e 42 91
e 42 93
e 42 98
e 42 101
e 42 105
e 42 107
e 42 110
e 42 116
e 42 120
e 42 121
e 42 125
e 42 126
e 42 129
e 42 132
e 42 138
e 42 141
e 42 142
e 42 145
e 43 44
e 43 47
e 43 49
e 43 50
e 43 52
e 43 56
e 43 58
e 43 60
e 43 62
e 43 65
e 43 66
e 43 67
e 43 69
e 43 71
e 43 75
e 43 76
e 43 82
e 43 84
e 43 85
e 43 86
e 43 101
e 43 103
e 43 110
e 43 112
e 43 114
e 43 120
e 43 121
e 43 123
e 43 135
e 43 140
e 43 142
e 43 143
e 43 150
e 44 45
e 44 47
e 44 49
e 44 51
e 44 54
e 44 56
e 44 58
e 44 60
e 44 62
e 44 64
e 44 66
e 44 67
e 44 68
e 44 69
e 44 71
e 44 73
e 44 75
e 44 77
e 44 79
e 44 81
e 44 82
e 44 84
e 44 85
e 44 86
e 44 88
e 44 89
e 44 94
e 44 95
e 44 97
e 44 101
e 44 102
e 44 103
e 44 106
e 44 107
e 44 112
e 44 116
e 44 121
e 44 122
e 44 123
e 44 128
e 44 130
e 44 133
e 44 134
e 44 136
e 44 137
e 44 139
e 44 140
e 44 142
e 44 146
e 44 148
e 44 149
e 45 46
e 45 48
e 45 53
e 45 54
e 45 56
e 45 57
e 45 58
e 45 60
e 45 64
e 45 65
e 45 74
e 45 78
e 45 79
e 45 82
e 45 88
e 45 96
e 45 98
e 45 99
e 45 100
e 45 102
e 45 105
e 45 118
e 45 119
e 45 120
e 45 122
e 45 130
e 45 131
e 45 132
e 45 133
e 45 134
e 45 135
e 45 147
e 45 148
e 46 52
e 46 54
e 46 57
e 46 59
e 46 61
e 46 65
e 46 68
e 46 72
e 46 77
e 46 79
e 46 86
e 46 88
e 46 89
e 46 90
e 46 91
e 46 102
e 46 103
e 46 104
e 46 107
e 46 108
e 46 114
e 46 117
e 46 118
e 46 120
e 46 127
e 46 128
e 46 130
e 46 132
e 46 134
e 46 135
e 46 136
e 46 143
e 46 145
e 46 147
e 47 48
e 47 50
e 47 52
e 47 53
e 47 55
e 47 58
e 47 61
e 47 64
e 47 65
e 47 66
e 47 69
e 47 72
e 47 75
e 47 78
e 47 79
e 47 81
e 47 82
e 47 84
e 47 89
e 47 90
e 47 93
e 47 98
e 47 101
e 47 105
e 47 110
e 47 115
e 47 116
e 47 117
e 47 118
e 47 129
e 47 134
e 47 135
e 47 139
e 47 140
e 47 146
e 47 150
e 48 49
e 48 53
e 48 54
e 48 56
e 48 62
e 48 72
e 48 77
e 48 78
e 48 81
e 48 82
e 48 85
e 48 88
e 48 90
e 48 92
e 48 101
e 48 109
e 48 110
e 48 111
e 48 114
e 48 120
e 48 121
e 48 129
e 48 132
e 48 133
e 48 134
e 48 135
e 48 140
e 48 142
e 49 50
e 49 51
e 49 53
e 49 55
e 49 56
e 49 57
e 49 65
e 49 68
e 49 71
e 49 72
e 49 76
e 49 77
e 49 78
e 49 83
e 49 87
e 49 89
e 49 93
e 49 100
e 49 103
e 49 105
e 49 106
e 49 107
e 49 109
e 49 111
e 49 113
e 49 114
e 49 115
e 49 117
e 49 120
e 49 121
e 49 125
e 49 126
e 49 130
e 49 131
e 49 138
e 49 143
e 49 147
e 50 52
e 50 55
e 50 60
e 50 62
e 50 66
e 50 67
e 50 69
e 50 70
e 50 73
e 50 76
e 50 77
e 50 79
e 50 80
e 50 88
e 50 90
e 50 91
e 50 94
e 50 96
e 50 101
e 50 102
e 50 106
e 50 116
e 50 118
e 50 119
e 50 125
e 50 126
e 50 127
e 50 131
e 50 132
e 50 134
e 50 140
e 50 142
e 50 143
e 50 146
e 51 52
e 51 54
e 51 56
e 51 60
e 51 61
e 51 67
e 51 72
e 51 74
e 51 78
e 51 82
e 51 84
e 51 85
e 51 89
e 51 101
e 51 104
e 51 105
e 51 107
e 51 108
e 51 110
e 51 113
e 51 114
e 51 119
e 51 121
e 51 122
e 51 126
e 51 133
e 51 134
e 51 135
e 51 136
e 51 137
e 51 138
e 51 140
e 51 143
e 51 149
e 52 54
e 52 56
e 52 62
e 52 63
e 52 68
e 52 72
e 52 74
e 52 78
e 52 82
e 52 84
e 52 88
e 52 90
e 52 91
e 52 93
e 52 95
e 52 96
e 52 98
e 52 99
e 52 100
e 52 102
e 52 105
e 52 115
e 52 119
e 52 122
e 52 128
e 52 129
e 52 136
e 52 137
e 52 139
e 52 141
e 52 143
e 52 146
e 53 59
e 53 61
e 53 69
e 53 70
e 53 72
e 53 75
e 53 83
e 53 87
e 53 89
e 53 91
e 53 95
e 53 96
e 53 98
e 53 107
e 53 109
e 53 110
e 53 112
e 53 114
e 53 117
e 53 123
e 53 125
e 53 128
e 53 129
e 53 130
e 53 134
e 53 136
e 53 137
e 53 138
e 53 140
e 53 144
e 53 146
e 53 148
e 53 150
e 54 65
e 54 70
e 54 72
e 54 74
e 54 77
e 54 82
e 54 86
e 54 92
e 54 94
e 54 98
e 54 99
e 54 105
e 54 107
e 54 108
e 54 109
e 54 113
e 54 115
e 54 125
e 54 132
e 54 137
e 54 140
e 54 142
e 54 145
e 55 59
e 55 70
e 55 74
e 55 81
e 55 83
e 55 85
e 55 86
e 55 87
e 55 88
e 55 90
e 55 96
e 55 100
e 55 102
e 55 107
e 55 109
e 55 110
e 55 116
e 55 122
e 55 123
e 55 127
e 55 128
e 55 129
e 55 132
e 55 133
e 55 135
e 55 138
e 55 140
e 55 142
e 55 143
e 55 144
e 56 58
e 56 60
e 56 62
e 56 71
e 56 80
e 56 81
e 56 87
e 56 90
e 56 91
e 56 93
e 56 94
e 56 95
e 56 98
e 56 104
e 56 106
e 56 111
e 56 121
e 56 130
e 56 132
e 56 133
e 56 146
e 57 58
e 57 63
e 57 70
e 57 73
e 57 74
e 57 76
e 57 78
e 57 80
e 57 82
e 57 84
e 57 86
e 57 87
e 57 90
e 57 93
e 57 97
e 57 98
e 57 101
e 57 105
e 57 112
e 57 118
e 57 121
e 57 122
e 57 123
e 57 125
e 57 131
e 57 133
e 57 140
e 57 141
e 57 145
e 57 146
e 58 61
e 58 62
e 58 63
e 58 66
e 58 68
e 58 74
e 58 75
e 58 79
e 58 80
e 58 81
e 58 82
e 58 87
e 58 88
e 58 91
e 58 93
e 58 94
e 58 95
e 58 98
e 58 106
e 58 107
e 58 112
e 58 114
e 58 124
e 58 127
e 58 128
e 58 130
e 58 131
e 58 132
e 58 133
e 58 134
e 58 139
e 58 140
e 58 142
e 58 143
e 58 147
e 58 149
e 59 60
e 59 61
e 59 63
e 59 66
e 59 69
e 59 70
e 59 72
e 59 73
e 59 74
e 59 80
e 59 83
e 59 92
e 59 98
e 59 99
e 59 100
e 59 111
e 59 113
e 59 117
e 59 122
e 59 123
e 59 127
e 59 128
e 59 130
e 59 136
e 59 139
e 59 150
e 60 65
e 60 66
e 60 70
e 60 76
e 60 78
e 60 81
e 60 87
e 60 91
e 60 94
e 60 99
e 60 100
e 60 106
e 60 111
e 60 114
e 60 117
e 60 118
e 60 125
e 60 126
e 60 127
e 60 130
e 60 131
e 60 134
e 60 147
e 60 148
e 60 150
e 61 62
e 61 71
e 61 72
e 61 74
e 61 77
e 61 78
e 61 83
e 61 88
e 61 91
e 61 92
e 61 93
e 61 97
e 61 100
e 61 101
e 61 106
e 61 108
e 61 109
e 61 113
e 61 115
e 61 118
e 61 127
e 61 131
e 61 132
e 61 133
e 61 138
e 61 140
e 61 143
e 61 144
e 61 145
e 61 148
e 62 65
e 62 66
e 62 71
e 62 75
e 62 85
e 62 87
e 62 89
e 62 93
e 62 96
e 62 97
e 62 98
e 62 102
e 62 105
e 62 112
e 62 113
e 62 114
e 62 118
e 62 121
e 62 122
e 62 126
e 62 131
e 62 134
e 62 138
e 62 139
e 63 66
e 63 67
e 63 72
e 63 75
e 63 79
e 63 80
e 63 84
e 63 91
e 63 92
e 63 99
e 63 100
e 63 101
e 63 103
e 63 110
e 63 113
e 63 114
e 63 123
e 63 126
e 63 141
e 63 147
e 63 148
e 63 149
e 64 69
e 64 70
e 64 74
e 64 81
e 64 82
e 64 83
e 64 84
e 64 85
e 64 86
e 64 87
e 64 100
e 64 103
e 64 107
e 64 112
e 64 115
e 64 119
e 64 126
e 64 127
e 64 134
e 64 141
e 64 149
e 65 67
e 65 68
e 65 72
e 65 76
e 65 79
e 65 85
e 65 94
e 65 101
e 65 103
e 65 106
e 65 108
e 65 109
e 65 110
e 65 114
e 65 116
e 65 118
e 65 125
e 65 142
e 65 149
e 65 150
e 66 71
e 66 73
e 66 78
e 66 79
e 66 80
e 66 81
e 66 88
e 66 89
e 66 95
e 66 103
e 66 104
e 66 110
e 66 111
e 66 118
e 66 125
e 66 131
e 66 133
e 66 137
e 66 139
e 66 143
e 66 145
e 66 149
e 67 68
e 67 80
e 67 85
e 67 91
e 67 93
e 67 94
e 67 96
e 67 100
e 67 101
e 67 106
e 67 108
e 67 110
e 67 112
e 67 115
e 67 116
e 67 122
e 67 133
e 67 135
e 67 137
e 67 140
e 67 142
e 67 145
e 67 150
e 68 70
e 68 72
e 68 73
e 68 74
e 68 76
e 68 90
e 68 92
e 68 93
e 68 103
e 68 104
e 68 107
e 68 108
e 68 110
e 68 112
e 68 117
e 68 118
e 68 119
e 68 122
e 68 124
e 68 130
e 68 138
e 68 143
e 68 144
e 68 145
e 68 149
e 69 71
e 69 74
e 69 76
e 69 78
e 69 84
e 69 95
e 69 103
e 69 105
e 69 106
e 69 107
e 69 111
e 69 115
e 69 119
e 69 122
e 69 123
e 69 131
e 69 138
e 69 139
e 69 144
e 69 145
e 70 71
e 70 79
e 70 84
e 70 86
e 70 87
e 70 94
e 70 97
e 70 100
e 70 102
e 70 105
e 70 106
e 70 108
e 70 111
e 70 113
e 70 115
e 70 122
e 70 124
e 70 126
e 70 128
e 70 133
e 70 137
e 70 138
e 70 139
e 70 146
e 70 148
e 71 78
e 71 85
e 71 87
e 71 89
e 71 92
e 71 94
e 71 96
e 71 98
e 71 99
e 71 105
e 71 110
e 71 112
e 71 116
e 71 125
e 71 130
e 71 131
e 71 133
e 71 134
e 71 135
e 71 140
e 71 146
e 71 147
e 72 74
e 72 89
e 72 93
e 72 101
e 72 104
e 72 105
e 72 107
e 72 109
e 72 111
e 72 118
e 72 125
e 72 131
e 72 135
e 72 148
e 73 76
e 73 80
e 73 85
e 73 92
e 73 93
e 73 94
e 73 98
e 73 101
e 73 117
e 73 124
e 73 126
e 73 127
e 73 129
e 73 131
e 73 133
e 73 136
e 73 142
e 73 145
e 73 147
e 73 149
e 74 76
e 74 78
e 74 98
e 74 103
e 74 111
e 74 124
e 74 128
e 74 129
e 74 131
e 74 133
e 74 135
e 74 142
e 74 145
e 74 146
e 74 150
e 75 82
e 75 83
e 75 85
e 75 87
e 75 89
e 75 96
e 75 99
e 75 101
e 75 106
e 75 108
e 75 113
e 75 116
e 75 118
e 75 119
e 75 127
e 75 136
e 75 143
e 76 78
e 76 79
e 76 83
e 76 87
e 76 88
e 76 89
e 76 99
e 76 102
e 76 106
e 76 107
e 76 109
e 76 112
e 76 117
e 76 118
e 76 120
e 76 123
e 76 124
e 76 125
e 76 127
e 76 128
e 76 129
e 76 131
e 76 132
e 76 135
e 76 137
e 76 139
e 76 140
e 76 141
e 76 146
e 76 149
e 77 80
e 77 81
e 77 94
e 77 95
e 77 96
e 77 110
e 77 113
e 77 121
e 77 129
e 77 131
e 77 137
e 77 140
e 77 144
e 77 148
e 77 149
e 78 79
e 78 81
e 78 85
e 78 86
e 78 98
e 78 100
e 78 101
e 78 106
e 78 107
e 78 108
e 78 112
e 78 113
e 78 114
e 78 115
e 78 117
e 78 119
e 78 122
e 78 124
e 78 125
e 78 129
e 78 130
e 78 132
e 78 135
e 78 143
e 78 145
e 79 82
e 79 83
e 79 85
e 79 86
e 79 89
e 79 91
e 79 93
e 79 99
e 79 102
e 79 106
e 79 107
e 79 109
e 79 110
e 79 115
e 79 116
e 79 119
e 79 120
e 79 125
e 79 130
e 79 132
e 79 134
e 79 136
e 79 150
e 80 81
e 80 82
e 80 83
e 80 84
e 80 85
e 80 90
e 80 94
e 80 99
e 80 115
e 80 120
e 80 121
e 80 122
e 80 125
e 80 127
e 80 128
e 80 133
e 80 134
e 80 136
e 80 141
e 80 142
e 80 148
e 80 149
e 81 89
e 81 90
e 81 93
e 81 94
e 81 104
e 81 105
e 81 110
e 81 111
e 81 112
e 81 113
e 81 119
e 81 133
e 81 136
e 81 137
e 81 139
e 81 140
e 81 141
e 81 145
e 81 148
e 81 149
e 82 84
e 82 87
e 82 88
e 82 90
e 82 96
e 82 97
e 82 101
e 82 102
e 82 106
e 82 107
e 82 113
e 82 115
e 82 117
e 82 118
e 82 121
e 82 123
e 82 133
e 82 136
e 82 137
e 82 138
e 82 140
e 82 143
e 82 147
e 82 148
e 82 149
e 83 85
e 83 86
e 83 90
e 83 91
e 83 94
e 83 96
e 83 97
e 83 102
e 83 111
e 83 114
e 83 115
e 83 119
e 83 132
e 83 133
e 83 138
e 83 139
e 83 142
e 83 143
e 83 147
e 83 149
e 84 87
e 84 88
e 84 90
e 84 93
e 84 94
e 84 96
e 84 98
e 84 99
e 84 101
e 84 102
e 84 103
e 84 107
e 84 108
e 84 110
e 84 111
e 84 112
e 84 117
e 84 121
e 84 123
e 84 126
e 84 132
e 84 139
e 84 141
e 84 142
e 84 143
e 84 145
e 84 146
e 84 147
e 84 148
e 85 86
e 85 87
e 85 90
e 85 95
e 85 99
e 85 100
e 85 104
e 85 106
e 85 114
e 85 116
e 85 117
e 85 118
e 85 122
e 85 125
e 85 127
e 85 130
e 85 138
e 85 143
e 85 147
e 86 93
e 86 105
e 86 106
e 86 109
e 86 113
e 86 115
e 86 116
e 86 118
e 86 124
e 86 125
e 86 127
e 86 132
e 86 133
e 86 142
e 86 144
e 86 149
e 86 150
e 87 91
e 87 93
e 87 95
e 87 97
e 87 100
e 87 101
e 87 104
e 87 105
e 87 108
e 87 109
e 87 110
e 87 111
e 87 116
e 87 119
e 87 122
e 87 127
e 87 141
e 87 150
e 88 90
e 88 91
e 88 94
e 88 100
e 88 102
e 88 108
e 88 109
e 88 114
e 88 116
e 88 118
e 88 123
e 88 126
e 88 128
e 88 129
e 88 130
e 88 131
e 88 133
e 88 135
e 88 137
e 88 138
e 88 145
e 88 150
e 89 95
e 89 96
e 89 97
e 89 99
e 89 100
e 89 102
e 89 106
e 89 111
e 89 114
e 89 119
e 89 127
e 89 132
e 89 138
e 89 141
e 89 148
e 90 103
e 90 104
e 90 105
e 90 106
e 90 112
e 90 117
e 90 118
e 90 119
e 90 120
e 90 122
e 90 129
e 90 130
e 90 134
e 90 136
e 90 140
e 90 141
e 91 93
e 91 94
e 91 99
e 91 105
e 91 108
e 91 111
e 91 112
e 91 113
e 91 115
e 91 116
e 91 117
e 91 118
e 91 120
e 91 124
e 91 126
e 91 127
e 91 128
e 91 135
e 91 136
e 91 144
e 91 150
e 92 93
e 92 101
e 92 102
e 92 103
e 92 104
e 92 105
e 92 110
e 92 112
e 92 114
e 92 120
e 92 125
e 92 126
e 92 132
e 92 133
e 92 136
e 92 137
e 92 138
e 92 140
e 92 142
e 92 147
e 92 150
e 93 96
e 93 99
e 93 100
e 93 104
e 93 108
e 93 109
e 93 111
e 93 115
e 93 119
e 93 124
e 93 126
e 93 135
e 93 139
e 93 140
e 93 142
e 93 147
e 93 150
e 94 97
e 94 105
e 94 111
e 94 117
e 94 118
e 94 120
e 94 127
e 94 129
e 94 137
e 94 140
e 94 142
e 94 149
e 95 97
e 95 99
e 95 105
e 95 108
e 95 110
e 95 115
e 95 117
e 95 122
e 95 131
e 95 134
e 95 140
e 95 144
e 95 145
e 95 146
e 95 149
e 95 150
e 96 97
e 96 98
e 96 104
e 96 105
e 96 106
e 96 112
e 96 113
e 96 115
e 96 116
e 96 119
e 96 123
e 96 125
e 96 136
e 96 140
e 96 147
e 97 98
e 97 109
e 97 111
e 97 120
e 97 121
e 97 125
e 97 126
e 97 136
e 97 148
e 98 102
e 98 104
e 98 107
e 98 111
e 98 112
e 98 120
e 98 124
e 98 125
e 98 130
e 98 133
e 98 137
e 98 142
e 98 143
e 98 145
e 98 146
e 98 149
e 99 107
e 99 113
e 99 114
e 99 117
e 99 124
e 99 127
e 99 129
e 99 131
e 99 135
e 99 137
e 99 142
e 99 144
e 99 145
e 99 146
e 99 148
e 100 102
e 100 104
e 100 105
e 100 116
e 100 122
e 100 124
e 100 125
e 100 128
e 100 129
e 100 130
e 100 133
e 100 134
e 100 135
e 100 136
e 100 137
e 100 142
e 100 144
e 100 146
e 100 147
e 100 148
e 100 150
e 101 103
e 101 109
e 101 111
e 101 127
e 101 129
e 101 136
e 101 141
e 101 144
e 101 149
e 102 111
e 102 114
e 102 117
e 102 123
e 102 124
e 102 128
e 102 131
e 102 139
e 102 140
e 102 143
e 102 146
e 102 147
e 103 106
e 103 110
e 103 111
e 103 112
e 103 117
e 103 120
e 103 123
e 103 134
e 103 137
e 103 138
e 103 140
e 103 142
e 103 149
e 104 107
e 104 110
e 104 113
e 104 118
e 104 120
e 104 126
e 104 129
e 104 135
e 104 137
e 104 138
e 105 106
e 105 108
e 105 118
e 105 126
e 105 131
e 105 133
e 105 145
e 105 146
e 106 107
e 106 108
e 106 109
e 106 113
e 106 118
e 106 123
e 106 128
e 106 131
e 106 135
e 106 146
e 106 147
e 106 148
e 106 150
e 107 108
e 107 110
e 107 112
e 107 114
e 107 118
e 107 119
e 107 121
e 107 123
e 107 125
e 107 126
e 107 127
e 107 129
e 107 136
e 107 137
e 107 138
e 107 139
e 107 143
e 107 146
e 107 150
e 108 115
e 108 120
e 108 123
e 108 124
e 108 126
e 108 129
e 108 130
e 108 133
e 108 134
e 108 135
e 108 136
e 108 140
e 108 143
e 108 144
e 109 110
e 109 113
e 109 114
e 109 115
e 109 118
e 109 121
e 109 122
e 109 126
e 109 130
e 109 131
e 109 134
e 109 139
e 109 142
e 109 143
e 109 145
e 109 150
e 110 114
e 110 116
e 110 117
e 110 122
e 110 123
e 110 126
e 110 128
e 110 129
e 110 134
e 110 137
e 110 139
e 110 143
e 110 144
e 110 146
e 110 147
e 110 150
e 111 116
e 111 124
e 111 125
e 111 136
e 111 138
e 111 139
e 111 141
e 111 150
e 112 113
e 112 120
e 112 122
e 112 123
e 112 129
e 112 131
e 112 134
e 112 140
e 112 141
e 112 144
e 112 149
e 113 119
e 113 120
e 113 121
e 113 123
e 113 127
e 113 129
e 113 130
e 113 131
e 113 136
e 113 137
e 113 143
e 113 146
e 113 148
e 114 119
e 114 120
e 114 125
e 114 128
e 114 129
e 114 136
e 114 142
e 114 143
e 114 145
e 115 117
e 115 126
e 115 133
e 115 137
e 115 142
e 115 144
e 115 148
e 116 119
e 116 120
e 116 125
e 116 127
e 116 133
e 116 135
e 116 136
e 116 138
e 116 140
e 116 141
e 116 148
e 116 150
e 117 119
e 117 120
e 117 123
e 117 124
e 117 129
e 117 131
e 117 134
e 117 135
e 117 137
e 117 139
e 117 146
e 117 149
e 117 150
e 118 123
e 118 130
e 118 132
e 118 133
e 118 136
e 118 137
e 118 138
e 118 140
e 118 142
e 118 146
e 119 126
e 119 129
e 119 133
e 119 137
e 119 138
e 119 144
e 120 126
e 120 129
e 120 130
e 120 132
e 120 134
e 120 139
e 120 147
e 120 149
e 120 150
e 121 124
e 121 129
e 121 131
e 121 133
e 121 135
e 121 138
e 121 146
e 121 148
e 121 150
e 122 124
e 122 126
e 122 129
e 122 136
e 122 138
e 122 146
e 123 126
e 123 129
e 123 132
e 123 133
e 123 139
e 123 149
e 124 128
e 124 129
e 124 132
e 124 133
e 124 134
e 124 139
e 124 140
e 124 141
e 124 145
e 124 148
e 124 149
e 124 150
e 125 127
e 125 135
e 125 137
e 125 145
e 125 150
e 126 127
e 126 130
e 126 131
e 126 132
e 126 133
e 126 135
e 126 137
e 126 138
e 126 140
e 126 143
e 126 146
e 126 148
e 127 128
e 127 130
e 127 139
e 127 141
e 127 144
e 127 149
e 128 129
e 128 130
e 128 138
e 128 141
e 128 142
e 128 143
e 128 146
e 129 132
e 129 147
e 129 149
e 129 150
e 130 132
e 130 134
e 130 138
e 130 140
e 130 144
e 130 149
e 131 132
e 131 133
e 131 136
e 131 137
e 131 141
e 131 145
e 132 139
e 132 141
e 132 146
e 132 148
e 133 137
e 133 139
e 133 142
e 133 146
e 134 144
e 134 145
e 134 148
e 135 136
e 135 137
e 135 138
e 135 147
e 136 140
e 136 141
e 136 142
e 136 147
e 137 138
e 137 141
e 137 150
e 138 141
e 138 142
e 138 145
e 139 140
e 139 141
e 139 142
e 139 144
e 140 141
e 140 143
e 140 147
e 140 149
e 141 144
e 141 145
e 142 143
e 142 147
e 143 144
e 143 148
e 144 146
e 144 147
e 144 148
e 144 149
e 145 146
e 145 147
e 145 148
e 145 149
e 146 150
e 147 148
e 147 149
e 147 150
